(set-option :produce-models true)
(set-logic QF_UF)
(declare-fun p27() Bool)
(declare-fun p55() Bool)
(declare-fun p38() Bool)
(declare-fun p8() Bool)
(declare-fun p11() Bool)
(declare-fun p41() Bool)
(declare-fun p4() Bool)
(declare-fun p22() Bool)
(declare-fun p23() Bool)
(declare-fun p58() Bool)
(declare-fun p26() Bool)
(declare-fun p5() Bool)
(declare-fun p34() Bool)
(declare-fun p32() Bool)
(declare-fun p47() Bool)
(declare-fun p19() Bool)
(declare-fun p24() Bool)
(declare-fun p20() Bool)
(declare-fun p25() Bool)
(declare-fun p36() Bool)
(declare-fun p12() Bool)
(declare-fun p30() Bool)
(declare-fun p29() Bool)
(declare-fun p13() Bool)
(declare-fun p16() Bool)
(declare-fun p17() Bool)
(declare-fun p1() Bool)
(declare-fun p18() Bool)
(declare-fun p52() Bool)
(declare-fun p9() Bool)
(declare-fun p15() Bool)
(declare-fun p54() Bool)
(declare-fun p49() Bool)
(declare-fun p44() Bool)
(declare-fun p53() Bool)
(declare-fun p0() Bool)
(declare-fun p39() Bool)
(declare-fun p57() Bool)
(declare-fun p43() Bool)
(declare-fun p21() Bool)
(declare-fun p40() Bool)
(declare-fun p56() Bool)
(declare-fun p33() Bool)
(declare-fun p28() Bool)
(declare-fun p35() Bool)
(declare-fun p50() Bool)
(declare-fun p3() Bool)
(declare-fun p42() Bool)
(declare-fun p7() Bool)
(declare-fun p51() Bool)
(declare-fun p2() Bool)
(declare-fun p46() Bool)
(declare-fun p45() Bool)
(declare-fun p6() Bool)
(declare-fun p37() Bool)
(declare-fun p10() Bool)
(declare-fun p48() Bool)
(declare-fun p31() Bool)
(declare-fun p14() Bool)
(declare-fun p59() Bool)
(assert
(and (or (not p27) p55 (not p38)) (or (not p8) p11 p41) (or (not p4) p22 (not p23)) (or (not p58) (not p26) p5) (or (not p34) p32 p47) (or (not p11) p19 p24) (or p20 p47 p25) (or p23 p36 (not p8)) (or p26 p22 (not p12)) (or p30 p30 (not p23)) (or (not p29) p24 p13) (or p16 p17 (not p16)) (or p1 p18 (not p38)) (or (not p52) p27 p9) (or (not p15) (not p23) p54) (or p55 p4 (not p49)) (or p44 (not p16) p24) (or p53 (not p0) (not p26)) (or p16 (not p39) p57) (or (not p43) p5 p21) (or p44 (not p40) (not p52)) (or (not p56) (not p19) p49) (or (not p58) p27 (not p11)) (or p39 (not p17) (not p39)) (or (not p26) p27 (not p33)) (or p28 p55 (not p35)) (or p58 (not p21) (not p50)) (or p20 (not p47) p28) (or p9 (not p50) (not p20)) (or (not p12) p26 p3) (or (not p42) (not p35) p15) (or p47 p7 p35) (or p40 (not p49) p30) (or p54 (not p36) p51) (or p2 p16 p13) (or p52 (not p36) p46) (or (not p5) p49 (not p45)) (or p56 p56 (not p50)) (or (not p40) p29 (not p8)) (or p28 p6 p8) (or (not p37) p46 p10) (or p33 p33 p48) (or (not p42) p43 (not p52)) (or p34 p22 p30) (or (not p13) (not p48) p31) (or p11 (not p25) p33) (or (not p10) p14 (not p17)) (or p25 p37 (not p41)) (or (not p11) p30 (not p5)) (or (not p22) (not p24) p15) (or (not p31) p55 p48) (or p14 (not p3) (not p19)) (or p42 (not p7) (not p22)) (or (not p54) (not p43) (not p16)) (or p35 (not p11) (not p53)) (or p49 p9 (not p38)) (or p37 (not p57) p21) (or p26 p3 (not p0)) (or p9 (not p24) (not p13)) (or (not p47) (not p0) (not p38)) (or p7 (not p55) (not p47)) (or (not p4) p50 (not p56)) (or p11 p5 (not p46)) (or p6 p45 p19) (or p30 p42 (not p58)) (or (not p21) (not p47) (not p2)) (or (not p24) p9 p37) (or p17 p22 (not p30)) (or p3 (not p12) (not p57)) (or (not p50) p50 p2) (or (not p5) (not p17) p59) (or (not p59) p2 (not p58)) (or p42 p9 p20) (or (not p57) p46 (not p35)) (or (not p2) p5 (not p17)) (or (not p53) (not p41) p47) (or p36 p20 p21) (or (not p2) (not p50) (not p3)) (or p33 p34 p35) (or p45 p32 p23) (or (not p29) (not p18) p44) (or (not p27) (not p4) p24) (or p19 (not p17) (not p40)) (or p34 (not p4) p37) (or (not p23) (not p21) p35) (or p59 p17 (not p31)) (or p59 (not p58) p8) (or p39 p54 p57) (or (not p38) p36 (not p31)) (or (not p31) p26 p15) (or (not p4) (not p43) p46) (or (not p9) (not p29) (not p44)) (or (not p17) (not p59) p4) (or p54 p47 (not p8)) (or (not p11) (not p5) p29) (or p16 p36 p38) (or (not p43) (not p47) (not p15)) (or (not p50) p30 p52) (or p41 p55 p59) (or p51 p8 p10) (or (not p8) (not p41) (not p34)) (or p41 (not p51) (not p55)) (or p11 p15 p34) (or (not p31) p10 (not p37)) (or (not p47) (not p40) p44) (or p42 (not p36) p26) (or (not p28) (not p37) (not p43)) (or p10 p23 p1) (or (not p45) (not p12) p12) (or (not p10) p18 p20) (or p9 p33 (not p39)) (or (not p25) p36 p42) (or p31 (not p40) p57) (or (not p19) p42 p21) (or p9 p37 p20) (or (not p19) p5 p44) (or p8 (not p11) p32) (or p31 (not p5) (not p13)) (or p42 (not p57) p17) (or p1 (not p39) p21) (or (not p6) (not p53) p42) (or p58 (not p2) p58) (or (not p36) (not p44) p51) (or (not p42) (not p26) (not p22)) (or p0 p26 p43) (or p22 p26 p43) (or p45 p44 p34) (or (not p29) (not p22) p20) (or p22 p1 (not p12)) (or p16 p58 (not p27)) (or p7 p41 p48) (or (not p16) p5 (not p48)) (or (not p1) p7 p34) (or (not p48) (not p45) p41) (or (not p50) (not p6) (not p12)) (or (not p29) p57 p36) (or p49 p37 p0) (or (not p31) p26 p27) (or (not p9) p25 (not p34)) (or (not p11) p11 (not p41)) (or (not p56) p0 p48) (or p25 p13 p43) (or (not p8) p49 (not p10)) (or (not p13) (not p3) p54) (or p53 (not p36) p13) (or (not p14) p6 p26) (or (not p56) p27 p40) (or (not p19) p41 (not p8)) (or p3 (not p25) p49) (or p33 (not p24) p43) (or p52 (not p55) p48) (or (not p10) (not p42) p29) (or (not p29) p39 (not p18)) (or p48 (not p8) p15) (or (not p17) p5 p51) (or (not p55) (not p12) p35) (or (not p27) (not p51) (not p38)) (or p24 (not p37) p8) (or p1 p8 p14) (or (not p29) (not p52) (not p37)) (or (not p30) (not p43) (not p25)) (or p40 (not p3) (not p9)) (or p12 p22 (not p50)) (or (not p55) p49 p40) (or (not p13) (not p3) p23) (or p29 p12 (not p41)) (or (not p38) p38 (not p14)) (or (not p5) (not p6) p16) (or (not p0) (not p50) p0) (or p37 p31 (not p36)) (or p53 (not p23) p38) (or (not p50) p38 p59) (or (not p42) (not p5) p28) (or (not p1) p24 (not p18)) (or (not p48) (not p14) p16) (or p7 (not p56) (not p20)) (or (not p31) p11 p19) (or (not p42) p26 (not p7)) (or p42 p59 p44) (or p16 (not p49) (not p44)) (or p59 (not p46) p42) (or (not p3) (not p29) p12) (or (not p58) (not p37) p28) (or (not p36) (not p22) (not p5)) (or p3 (not p1) p12) (or (not p29) p35 (not p24)) (or (not p3) p24 p54) (or (not p52) p47 (not p24)) (or p59 p35 (not p44)) (or p24 p14 (not p28)) (or (not p35) p12 (not p12)) (or (not p39) p14 (not p30)) (or (not p45) (not p49) p23) (or (not p10) (not p8) p53) (or p32 (not p52) (not p39)) (or p20 p13 p8) (or (not p32) (not p17) (not p26)) (or p59 p10 (not p7)) (or (not p0) (not p16) (not p16)) (or p58 p31 (not p15)) (or p19 p6 p31) (or (not p27) (not p56) p11) (or (not p3) (not p20) (not p7)) (or p7 p55 (not p43)) (or p30 p47 (not p26)) (or (not p32) (not p54) p9) (or p40 (not p35) (not p8)) (or (not p6) p31 p30) (or (not p57) p19 (not p48)) (or (not p52) p41 (not p37)) (or p36 (not p17) p56) (or (not p1) (not p28) (not p46)) (or p45 (not p19) p38) (or (not p12) (not p32) p13) (or (not p38) p49 p38) (or p29 p58 (not p10)) (or p11 (not p13) (not p23)) (or (not p47) p33 p36) (or (not p13) p15 p29) (or p27 p58 p1) (or (not p43) (not p50) p45) (or (not p14) p36 (not p18)) (or p47 p5 p50) (or (not p21) (not p45) (not p33)) (or p5 p11 p10) (or p29 p39 p30) (or (not p44) p37 p26) (or (not p16) (not p49) p10) (or p11 (not p12) (not p4)) (or p50 p17 p2) (or p7 p51 p57) (or p10 p59 p32) (or (not p52) (not p41) p41) (or (not p2) p53 (not p22)) (or p48 p29 p53) (or p48 p23 p32) (or (not p17) p30 p21) (or (not p32) (not p56) (not p41)) (or (not p52) (not p36) p3) (or (not p1) (not p8) p10) (or p19 (not p14) p43) (or p26 (not p10) (not p10)) (or p1 p9 (not p49)) (or (not p54) (not p8) (not p56)) (or (not p8) p40 (not p59)) (or (not p16) (not p10) p54) (or p30 (not p38) (not p30)) (or p21 (not p24) p34) (or (not p11) (not p46) p11) (or p9 (not p36) (not p18)) (or p56 p31 p2) (or (not p38) (not p1) p38))
)
(check-sat)
(get-model)
